717711
717711
717711
715521
715521
715521
714831
714831
699559
668675
668675
668675
668675
668675
649717
641539
641539
641539
641539
639965
638709
633188
631499
626215
606968
606968
606968
606968
602864
602864
602864
602864
602864
598817
598817
598817
598817
598817
598817
598817
595982
595982
594973
594973
594973
594973
594973
594162
594162
593186
593186
593186
589324
589324
589324
589324
589324
589324
589324
589324
586438
586438
586438
586438
586438
586438
586438
586438
586438
585749
585749
583662
576657
576657
576657
576657
576657
576657
576657
576657
576657
573172
573172
573172
569374
569374
569374
569374
569374
569374
569374
569374
569374
569374
569374
569158
564301
564301
561334
556018
